ilp_joint_2/output/combustion_ilp.lp
Maximize
  0.0366622365035326 Z_75_1_0 + 0.3884951736087932 Z_75_1_1
   + 0.0130547541292523 Z_75_1_2 + 0.00408259816602649 Z_75_1_3
   + 0.4093788693182528 Z_103_1_0 + 0.00355118976010182 Z_103_1_1
   + 1.5668620470671302e-04 Z_103_1_2 + 0.00330677436446728 Z_103_1_3
   + 0.00132037840001109 Z_103_2_0 + 0.00354782919930319 Z_103_2_1
   + 0.3627193634938388 Z_103_2_2 + 0.0033857407177527 Z_103_2_3
   + 0.00132037840001109 Z_103_3_0 + 0.00354782919930319 Z_103_3_1
   + 0.3627193634938388 Z_103_3_2 + 0.0033857407177527 Z_103_3_3
   + 0.00351725136028053 Z_77_1_0 + 0.00127005936145685 Z_77_1_1
   + 0.00897133852092818 Z_77_1_2 + 0.3374557463636179 Z_77_1_3
   + 0.00509884934233285 Z_36_1_0 + 0.00353997407642803 Z_36_1_1
   + 0.0474238715273216 Z_36_1_2 + 0.3317103664480798 Z_36_1_3
   + 0.0325607771547042 Z_66_1_0 + 0.3074860928314039 Z_66_1_1
   + 0.00317157653265221 Z_66_1_2 + 0.00901921702546133 Z_66_1_3
   + 0.3577858535123389 Z_49_1_0 + 0.2719761247489941 Z_49_1_1
   + 1.197486898626976e-04 Z_49_1_2 + 2.6806382763409122e-04 Z_49_1_3
   + 0.00142035923086797 Z_33_1_0 + 0.0047723526345132 Z_33_1_1
   + 0.1251579487402394 Z_33_1_2 + 0.3810039817531699 Z_33_1_3
   + 0.0057755751551552 Z_100_1_0 + 0.4326638298812268 Z_100_1_1
   + 0.00700951976329894 Z_100_1_2 + 0.00887760670228317 Z_100_1_3 + [
   8.8038780582528166e-04 Z_75_1_0 * Z_103_1_0
   + 0.015890501606103 Z_75_1_0 * Z_103_2_0
   + 0.0292231280206545 Z_75_1_0 * Z_103_3_0
   + 0.1076119550627252 Z_75_1_0 * Z_36_1_0
   + 0.0548852668097912 Z_75_1_0 * Z_66_1_0
   + 0.0256544711687997 Z_75_1_0 * Z_49_1_0
   + 0.0024251492276756 Z_75_1_0 * Z_33_1_0
   + 0.0172455056190265 Z_75_1_0 * Z_100_1_0
   + 8.8038780582528166e-04 Z_75_1_1 * Z_103_1_1
   + 0.015890501606103 Z_75_1_1 * Z_103_2_1
   + 0.0292231280206545 Z_75_1_1 * Z_103_3_1
   + 0.1076119550627252 Z_75_1_1 * Z_36_1_1
   + 0.0548852668097912 Z_75_1_1 * Z_66_1_1
   + 0.0256544711687997 Z_75_1_1 * Z_49_1_1
   + 0.0024251492276756 Z_75_1_1 * Z_33_1_1
   + 0.0172455056190265 Z_75_1_1 * Z_100_1_1
   + 8.8038780582528166e-04 Z_75_1_2 * Z_103_1_2
   + 0.015890501606103 Z_75_1_2 * Z_103_2_2
   + 0.0292231280206545 Z_75_1_2 * Z_103_3_2
   + 0.1076119550627252 Z_75_1_2 * Z_36_1_2
   + 0.0548852668097912 Z_75_1_2 * Z_66_1_2
   + 0.0256544711687997 Z_75_1_2 * Z_49_1_2
   + 0.0024251492276756 Z_75_1_2 * Z_33_1_2
   + 0.0172455056190265 Z_75_1_2 * Z_100_1_2
   + 8.8038780582528166e-04 Z_75_1_3 * Z_103_1_3
   + 0.015890501606103 Z_75_1_3 * Z_103_2_3
   + 0.0292231280206545 Z_75_1_3 * Z_103_3_3
   + 0.1076119550627252 Z_75_1_3 * Z_36_1_3
   + 0.0548852668097912 Z_75_1_3 * Z_66_1_3
   + 0.0256544711687997 Z_75_1_3 * Z_49_1_3
   + 0.0024251492276756 Z_75_1_3 * Z_33_1_3
   + 0.0172455056190265 Z_75_1_3 * Z_100_1_3
   + 1.271279991611707 Z_103_1_0 * Z_36_1_0
   + 0.00957062254236669 Z_103_1_0 * Z_66_1_0
   + 0.00251590825500454 Z_103_1_0 * Z_49_1_0
   + 0.2335004066225584 Z_103_1_0 * Z_100_1_0
   + 1.271279991611707 Z_103_1_1 * Z_36_1_1
   + 0.00957062254236669 Z_103_1_1 * Z_66_1_1
   + 0.00251590825500454 Z_103_1_1 * Z_49_1_1
   + 0.2335004066225584 Z_103_1_1 * Z_100_1_1
   + 1.271279991611707 Z_103_1_2 * Z_36_1_2
   + 0.00957062254236669 Z_103_1_2 * Z_66_1_2
   + 0.00251590825500454 Z_103_1_2 * Z_49_1_2
   + 0.2335004066225584 Z_103_1_2 * Z_100_1_2
   + 1.271279991611707 Z_103_1_3 * Z_36_1_3
   + 0.00957062254236669 Z_103_1_3 * Z_66_1_3
   + 0.00251590825500454 Z_103_1_3 * Z_49_1_3
   + 0.2335004066225584 Z_103_1_3 * Z_100_1_3
   + 3.90114e-05 Z_103_2_0 * Z_36_1_0 + 8.61625e-05 Z_103_2_0 * Z_49_1_0
   + 0.0555555555555556 Z_103_2_0 * Z_100_1_0
   + 3.90114e-05 Z_103_2_1 * Z_36_1_1 + 8.61625e-05 Z_103_2_1 * Z_49_1_1
   + 0.0555555555555556 Z_103_2_1 * Z_100_1_1
   + 3.90114e-05 Z_103_2_2 * Z_36_1_2 + 8.61625e-05 Z_103_2_2 * Z_49_1_2
   + 0.0555555555555556 Z_103_2_2 * Z_100_1_2
   + 3.90114e-05 Z_103_2_3 * Z_36_1_3 + 8.61625e-05 Z_103_2_3 * Z_49_1_3
   + 0.0555555555555556 Z_103_2_3 * Z_100_1_3
   + 0.1583587560999391 Z_103_3_0 * Z_36_1_0
   + 0.00957062254236669 Z_103_3_0 * Z_66_1_0
   + 0.3878893218195077 Z_103_3_0 * Z_49_1_0
   + 0.1839184269109725 Z_103_3_0 * Z_33_1_0
   + 0.4906855022809597 Z_103_3_0 * Z_100_1_0
   + 0.1583587560999391 Z_103_3_1 * Z_36_1_1
   + 0.00957062254236669 Z_103_3_1 * Z_66_1_1
   + 0.3878893218195077 Z_103_3_1 * Z_49_1_1
   + 0.1839184269109725 Z_103_3_1 * Z_33_1_1
   + 0.4906855022809597 Z_103_3_1 * Z_100_1_1
   + 0.1583587560999391 Z_103_3_2 * Z_36_1_2
   + 0.00957062254236669 Z_103_3_2 * Z_66_1_2
   + 0.3878893218195077 Z_103_3_2 * Z_49_1_2
   + 0.1839184269109725 Z_103_3_2 * Z_33_1_2
   + 0.4906855022809597 Z_103_3_2 * Z_100_1_2
   + 0.1583587560999391 Z_103_3_3 * Z_36_1_3
   + 0.00957062254236669 Z_103_3_3 * Z_66_1_3
   + 0.3878893218195077 Z_103_3_3 * Z_49_1_3
   + 0.1839184269109725 Z_103_3_3 * Z_33_1_3
   + 0.4906855022809597 Z_103_3_3 * Z_100_1_3
   + 0.0603047960166595 Z_77_1_0 * Z_36_1_0
   + 0.0603047960166595 Z_77_1_1 * Z_36_1_1
   + 0.0603047960166595 Z_77_1_2 * Z_36_1_2
   + 0.0603047960166595 Z_77_1_3 * Z_36_1_3
   + 0.00251590825500454 Z_36_1_0 * Z_49_1_0
   + 0.077217239886458 Z_36_1_0 * Z_100_1_0
   + 0.00251590825500454 Z_36_1_1 * Z_49_1_1
   + 0.077217239886458 Z_36_1_1 * Z_100_1_1
   + 0.00251590825500454 Z_36_1_2 * Z_49_1_2
   + 0.077217239886458 Z_36_1_2 * Z_100_1_2
   + 0.00251590825500454 Z_36_1_3 * Z_49_1_3
   + 0.077217239886458 Z_36_1_3 * Z_100_1_3
   + 0.0397562150048421 Z_66_1_0 * Z_49_1_0
   + 0.9272745978589998 Z_66_1_0 * Z_100_1_0
   + 0.0397562150048421 Z_66_1_1 * Z_49_1_1
   + 0.9272745978589998 Z_66_1_1 * Z_100_1_1
   + 0.0397562150048421 Z_66_1_2 * Z_49_1_2
   + 0.9272745978589998 Z_66_1_2 * Z_100_1_2
   + 0.0397562150048421 Z_66_1_3 * Z_49_1_3
   + 0.9272745978589998 Z_66_1_3 * Z_100_1_3
   + 0.2182328042398036 Z_49_1_0 * Z_33_1_0
   + 7.6632624489213685e-04 Z_49_1_0 * Z_100_1_0
   + 0.2182328042398036 Z_49_1_1 * Z_33_1_1
   + 7.6632624489213685e-04 Z_49_1_1 * Z_100_1_1
   + 0.2182328042398036 Z_49_1_2 * Z_33_1_2
   + 7.6632624489213685e-04 Z_49_1_2 * Z_100_1_2
   + 0.2182328042398036 Z_49_1_3 * Z_33_1_3
   + 7.6632624489213685e-04 Z_49_1_3 * Z_100_1_3 ] / 2 
Subject To
 constraint1_751: Z_75_1_0 + Z_75_1_1 + Z_75_1_2 + Z_75_1_3 <= 1
 constraint1_1031: Z_103_1_0 + Z_103_1_1 + Z_103_1_2 + Z_103_1_3 <= 1
 constraint1_1032: Z_103_2_0 + Z_103_2_1 + Z_103_2_2 + Z_103_2_3 <= 1
 constraint1_1033: Z_103_3_0 + Z_103_3_1 + Z_103_3_2 + Z_103_3_3 <= 1
 constraint1_771: Z_77_1_0 + Z_77_1_1 + Z_77_1_2 + Z_77_1_3 <= 1
 constraint1_361: Z_36_1_0 + Z_36_1_1 + Z_36_1_2 + Z_36_1_3 <= 1
 constraint1_661: Z_66_1_0 + Z_66_1_1 + Z_66_1_2 + Z_66_1_3 <= 1
 constraint1_491: Z_49_1_0 + Z_49_1_1 + Z_49_1_2 + Z_49_1_3 <= 1
 constraint1_331: Z_33_1_0 + Z_33_1_1 + Z_33_1_2 + Z_33_1_3 <= 1
 constraint1_1001: Z_100_1_0 + Z_100_1_1 + Z_100_1_2 + Z_100_1_3 <= 1
 constraint2_750: Z_75_1_0 <= 1
 constraint2_751: Z_75_1_1 <= 1
 constraint2_752: Z_75_1_2 <= 1
 constraint2_753: Z_75_1_3 <= 1
 constraint2_1030: Z_103_1_0 + Z_103_2_0 + Z_103_3_0 <= 1
 constraint2_1031: Z_103_1_1 + Z_103_2_1 + Z_103_3_1 <= 1
 constraint2_1032: Z_103_1_2 + Z_103_2_2 + Z_103_3_2 <= 1
 constraint2_1033: Z_103_1_3 + Z_103_2_3 + Z_103_3_3 <= 1
 constraint2_140: <= 1
 constraint2_141: <= 1
 constraint2_142: <= 1
 constraint2_143: <= 1
 constraint2_770: Z_77_1_0 <= 1
 constraint2_771: Z_77_1_1 <= 1
 constraint2_772: Z_77_1_2 <= 1
 constraint2_773: Z_77_1_3 <= 1
 constraint2_70: <= 1
 constraint2_71: <= 1
 constraint2_72: <= 1
 constraint2_73: <= 1
 constraint2_360: Z_36_1_0 <= 1
 constraint2_361: Z_36_1_1 <= 1
 constraint2_362: Z_36_1_2 <= 1
 constraint2_363: Z_36_1_3 <= 1
 constraint2_660: Z_66_1_0 <= 1
 constraint2_661: Z_66_1_1 <= 1
 constraint2_662: Z_66_1_2 <= 1
 constraint2_663: Z_66_1_3 <= 1
 constraint2_880: <= 1
 constraint2_881: <= 1
 constraint2_882: <= 1
 constraint2_883: <= 1
 constraint2_670: <= 1
 constraint2_671: <= 1
 constraint2_672: <= 1
 constraint2_673: <= 1
 constraint2_490: Z_49_1_0 <= 1
 constraint2_491: Z_49_1_1 <= 1
 constraint2_492: Z_49_1_2 <= 1
 constraint2_493: Z_49_1_3 <= 1
 constraint2_330: Z_33_1_0 <= 1
 constraint2_331: Z_33_1_1 <= 1
 constraint2_332: Z_33_1_2 <= 1
 constraint2_333: Z_33_1_3 <= 1
 constraint2_250: <= 1
 constraint2_251: <= 1
 constraint2_252: <= 1
 constraint2_253: <= 1
 constraint2_1000: Z_100_1_0 <= 1
 constraint2_1001: Z_100_1_1 <= 1
 constraint2_1002: Z_100_1_2 <= 1
 constraint2_1003: Z_100_1_3 <= 1
Bounds
Binaries
 Z_75_1_0 Z_75_1_1 Z_75_1_2 Z_75_1_3 Z_103_1_0 Z_103_1_1 Z_103_1_2
 Z_103_1_3 Z_103_2_0 Z_103_2_1 Z_103_2_2 Z_103_2_3 Z_103_3_0 Z_103_3_1
 Z_103_3_2 Z_103_3_3 Z_77_1_0 Z_77_1_1 Z_77_1_2 Z_77_1_3 Z_36_1_0 Z_36_1_1
 Z_36_1_2 Z_36_1_3 Z_66_1_0 Z_66_1_1 Z_66_1_2 Z_66_1_3 Z_49_1_0 Z_49_1_1
 Z_49_1_2 Z_49_1_3 Z_33_1_0 Z_33_1_1 Z_33_1_2 Z_33_1_3 Z_100_1_0 Z_100_1_1
 Z_100_1_2 Z_100_1_3
End
