ilp_joint_2/output/combustion_ilp.mps
NAME combustion_srl_ilp
* Max problem is converted into Min one
ROWS
 N  OBJ
 L  constraint1_751
 L  constraint1_1031
 L  constraint1_1032
 L  constraint1_1033
 L  constraint1_771
 L  constraint1_361
 L  constraint1_661
 L  constraint1_491
 L  constraint1_331
 L  constraint1_1001
 L  constraint2_750
 L  constraint2_751
 L  constraint2_752
 L  constraint2_753
 L  constraint2_1030
 L  constraint2_1031
 L  constraint2_1032
 L  constraint2_1033
 L  constraint2_140
 L  constraint2_141
 L  constraint2_142
 L  constraint2_143
 L  constraint2_770
 L  constraint2_771
 L  constraint2_772
 L  constraint2_773
 L  constraint2_70
 L  constraint2_71
 L  constraint2_72
 L  constraint2_73
 L  constraint2_360
 L  constraint2_361
 L  constraint2_362
 L  constraint2_363
 L  constraint2_660
 L  constraint2_661
 L  constraint2_662
 L  constraint2_663
 L  constraint2_880
 L  constraint2_881
 L  constraint2_882
 L  constraint2_883
 L  constraint2_670
 L  constraint2_671
 L  constraint2_672
 L  constraint2_673
 L  constraint2_490
 L  constraint2_491
 L  constraint2_492
 L  constraint2_493
 L  constraint2_330
 L  constraint2_331
 L  constraint2_332
 L  constraint2_333
 L  constraint2_250
 L  constraint2_251
 L  constraint2_252
 L  constraint2_253
 L  constraint2_1000
 L  constraint2_1001
 L  constraint2_1002
 L  constraint2_1003
COLUMNS
    MARKER    'MARKER'                 'INTORG'
    Z_75_1_0  OBJ       -3.6662236503532564e-02
    Z_75_1_0  constraint1_751  1
    Z_75_1_0  constraint2_750  1
    Z_75_1_1  OBJ       -3.8849517360879315e-01
    Z_75_1_1  constraint1_751  1
    Z_75_1_1  constraint2_751  1
    Z_75_1_2  OBJ       -1.3054754129252333e-02
    Z_75_1_2  constraint1_751  1
    Z_75_1_2  constraint2_752  1
    Z_75_1_3  OBJ       -4.0825981660264909e-03
    Z_75_1_3  constraint1_751  1
    Z_75_1_3  constraint2_753  1
    Z_103_1_0  OBJ       -4.0937886931825285e-01
    Z_103_1_0  constraint1_1031  1
    Z_103_1_0  constraint2_1030  1
    Z_103_1_1  OBJ       -3.5511897601018250e-03
    Z_103_1_1  constraint1_1031  1
    Z_103_1_1  constraint2_1031  1
    Z_103_1_2  OBJ       -1.5668620470671302e-04
    Z_103_1_2  constraint1_1031  1
    Z_103_1_2  constraint2_1032  1
    Z_103_1_3  OBJ       -3.3067743644672833e-03
    Z_103_1_3  constraint1_1031  1
    Z_103_1_3  constraint2_1033  1
    Z_103_2_0  OBJ       -1.3203784000110907e-03
    Z_103_2_0  constraint1_1032  1
    Z_103_2_0  constraint2_1030  1
    Z_103_2_1  OBJ       -3.5478291993031874e-03
    Z_103_2_1  constraint1_1032  1
    Z_103_2_1  constraint2_1031  1
    Z_103_2_2  OBJ       -3.6271936349383882e-01
    Z_103_2_2  constraint1_1032  1
    Z_103_2_2  constraint2_1032  1
    Z_103_2_3  OBJ       -3.3857407177527040e-03
    Z_103_2_3  constraint1_1032  1
    Z_103_2_3  constraint2_1033  1
    Z_103_3_0  OBJ       -1.3203784000110907e-03
    Z_103_3_0  constraint1_1033  1
    Z_103_3_0  constraint2_1030  1
    Z_103_3_1  OBJ       -3.5478291993031874e-03
    Z_103_3_1  constraint1_1033  1
    Z_103_3_1  constraint2_1031  1
    Z_103_3_2  OBJ       -3.6271936349383882e-01
    Z_103_3_2  constraint1_1033  1
    Z_103_3_2  constraint2_1032  1
    Z_103_3_3  OBJ       -3.3857407177527040e-03
    Z_103_3_3  constraint1_1033  1
    Z_103_3_3  constraint2_1033  1
    Z_77_1_0  OBJ       -3.5172513602805267e-03
    Z_77_1_0  constraint1_771  1
    Z_77_1_0  constraint2_770  1
    Z_77_1_1  OBJ       -1.2700593614568545e-03
    Z_77_1_1  constraint1_771  1
    Z_77_1_1  constraint2_771  1
    Z_77_1_2  OBJ       -8.9713385209281848e-03
    Z_77_1_2  constraint1_771  1
    Z_77_1_2  constraint2_772  1
    Z_77_1_3  OBJ       -3.3745574636361791e-01
    Z_77_1_3  constraint1_771  1
    Z_77_1_3  constraint2_773  1
    Z_36_1_0  OBJ       -5.0988493423328451e-03
    Z_36_1_0  constraint1_361  1
    Z_36_1_0  constraint2_360  1
    Z_36_1_1  OBJ       -3.5399740764280319e-03
    Z_36_1_1  constraint1_361  1
    Z_36_1_1  constraint2_361  1
    Z_36_1_2  OBJ       -4.7423871527321582e-02
    Z_36_1_2  constraint1_361  1
    Z_36_1_2  constraint2_362  1
    Z_36_1_3  OBJ       -3.3171036644807977e-01
    Z_36_1_3  constraint1_361  1
    Z_36_1_3  constraint2_363  1
    Z_66_1_0  OBJ       -3.2560777154704235e-02
    Z_66_1_0  constraint1_661  1
    Z_66_1_0  constraint2_660  1
    Z_66_1_1  OBJ       -3.0748609283140393e-01
    Z_66_1_1  constraint1_661  1
    Z_66_1_1  constraint2_661  1
    Z_66_1_2  OBJ       -3.1715765326522094e-03
    Z_66_1_2  constraint1_661  1
    Z_66_1_2  constraint2_662  1
    Z_66_1_3  OBJ       -9.0192170254613322e-03
    Z_66_1_3  constraint1_661  1
    Z_66_1_3  constraint2_663  1
    Z_49_1_0  OBJ       -3.5778585351233894e-01
    Z_49_1_0  constraint1_491  1
    Z_49_1_0  constraint2_490  1
    Z_49_1_1  OBJ       -2.7197612474899413e-01
    Z_49_1_1  constraint1_491  1
    Z_49_1_1  constraint2_491  1
    Z_49_1_2  OBJ       -1.1974868986269760e-04
    Z_49_1_2  constraint1_491  1
    Z_49_1_2  constraint2_492  1
    Z_49_1_3  OBJ       -2.6806382763409122e-04
    Z_49_1_3  constraint1_491  1
    Z_49_1_3  constraint2_493  1
    Z_33_1_0  OBJ       -1.4203592308679736e-03
    Z_33_1_0  constraint1_331  1
    Z_33_1_0  constraint2_330  1
    Z_33_1_1  OBJ       -4.7723526345131995e-03
    Z_33_1_1  constraint1_331  1
    Z_33_1_1  constraint2_331  1
    Z_33_1_2  OBJ       -1.2515794874023944e-01
    Z_33_1_2  constraint1_331  1
    Z_33_1_2  constraint2_332  1
    Z_33_1_3  OBJ       -3.8100398175316991e-01
    Z_33_1_3  constraint1_331  1
    Z_33_1_3  constraint2_333  1
    Z_100_1_0  OBJ       -5.7755751551551993e-03
    Z_100_1_0  constraint1_1001  1
    Z_100_1_0  constraint2_1000  1
    Z_100_1_1  OBJ       -4.3266382988122676e-01
    Z_100_1_1  constraint1_1001  1
    Z_100_1_1  constraint2_1001  1
    Z_100_1_2  OBJ       -7.0095197632989437e-03
    Z_100_1_2  constraint1_1001  1
    Z_100_1_2  constraint2_1002  1
    Z_100_1_3  OBJ       -8.8776067022831740e-03
    Z_100_1_3  constraint1_1001  1
    Z_100_1_3  constraint2_1003  1
    MARKER    'MARKER'                 'INTEND'
RHS
    RHS1      constraint1_751  1
    RHS1      constraint1_1031  1
    RHS1      constraint1_1032  1
    RHS1      constraint1_1033  1
    RHS1      constraint1_771  1
    RHS1      constraint1_361  1
    RHS1      constraint1_661  1
    RHS1      constraint1_491  1
    RHS1      constraint1_331  1
    RHS1      constraint1_1001  1
    RHS1      constraint2_750  1
    RHS1      constraint2_751  1
    RHS1      constraint2_752  1
    RHS1      constraint2_753  1
    RHS1      constraint2_1030  1
    RHS1      constraint2_1031  1
    RHS1      constraint2_1032  1
    RHS1      constraint2_1033  1
    RHS1      constraint2_140  1
    RHS1      constraint2_141  1
    RHS1      constraint2_142  1
    RHS1      constraint2_143  1
    RHS1      constraint2_770  1
    RHS1      constraint2_771  1
    RHS1      constraint2_772  1
    RHS1      constraint2_773  1
    RHS1      constraint2_70  1
    RHS1      constraint2_71  1
    RHS1      constraint2_72  1
    RHS1      constraint2_73  1
    RHS1      constraint2_360  1
    RHS1      constraint2_361  1
    RHS1      constraint2_362  1
    RHS1      constraint2_363  1
    RHS1      constraint2_660  1
    RHS1      constraint2_661  1
    RHS1      constraint2_662  1
    RHS1      constraint2_663  1
    RHS1      constraint2_880  1
    RHS1      constraint2_881  1
    RHS1      constraint2_882  1
    RHS1      constraint2_883  1
    RHS1      constraint2_670  1
    RHS1      constraint2_671  1
    RHS1      constraint2_672  1
    RHS1      constraint2_673  1
    RHS1      constraint2_490  1
    RHS1      constraint2_491  1
    RHS1      constraint2_492  1
    RHS1      constraint2_493  1
    RHS1      constraint2_330  1
    RHS1      constraint2_331  1
    RHS1      constraint2_332  1
    RHS1      constraint2_333  1
    RHS1      constraint2_250  1
    RHS1      constraint2_251  1
    RHS1      constraint2_252  1
    RHS1      constraint2_253  1
    RHS1      constraint2_1000  1
    RHS1      constraint2_1001  1
    RHS1      constraint2_1002  1
    RHS1      constraint2_1003  1
BOUNDS
 UP BND1      Z_75_1_0  1
 UP BND1      Z_75_1_1  1
 UP BND1      Z_75_1_2  1
 UP BND1      Z_75_1_3  1
 UP BND1      Z_103_1_0  1
 UP BND1      Z_103_1_1  1
 UP BND1      Z_103_1_2  1
 UP BND1      Z_103_1_3  1
 UP BND1      Z_103_2_0  1
 UP BND1      Z_103_2_1  1
 UP BND1      Z_103_2_2  1
 UP BND1      Z_103_2_3  1
 UP BND1      Z_103_3_0  1
 UP BND1      Z_103_3_1  1
 UP BND1      Z_103_3_2  1
 UP BND1      Z_103_3_3  1
 UP BND1      Z_77_1_0  1
 UP BND1      Z_77_1_1  1
 UP BND1      Z_77_1_2  1
 UP BND1      Z_77_1_3  1
 UP BND1      Z_36_1_0  1
 UP BND1      Z_36_1_1  1
 UP BND1      Z_36_1_2  1
 UP BND1      Z_36_1_3  1
 UP BND1      Z_66_1_0  1
 UP BND1      Z_66_1_1  1
 UP BND1      Z_66_1_2  1
 UP BND1      Z_66_1_3  1
 UP BND1      Z_49_1_0  1
 UP BND1      Z_49_1_1  1
 UP BND1      Z_49_1_2  1
 UP BND1      Z_49_1_3  1
 UP BND1      Z_33_1_0  1
 UP BND1      Z_33_1_1  1
 UP BND1      Z_33_1_2  1
 UP BND1      Z_33_1_3  1
 UP BND1      Z_100_1_0  1
 UP BND1      Z_100_1_1  1
 UP BND1      Z_100_1_2  1
 UP BND1      Z_100_1_3  1
QUADOBJ
    Z_75_1_0  Z_103_1_0  -4.4019390291264083e-04
    Z_75_1_0  Z_103_2_0  -7.9452508030514769e-03
    Z_75_1_0  Z_103_3_0  -1.4611564010327227e-02
    Z_75_1_0  Z_36_1_0  -5.3805977531362577e-02
    Z_75_1_0  Z_66_1_0  -2.7442633404895622e-02
    Z_75_1_0  Z_49_1_0  -1.2827235584399851e-02
    Z_75_1_0  Z_33_1_0  -1.2125746138377982e-03
    Z_75_1_0  Z_100_1_0  -8.6227528095132299e-03
    Z_75_1_1  Z_103_1_1  -4.4019390291264083e-04
    Z_75_1_1  Z_103_2_1  -7.9452508030514769e-03
    Z_75_1_1  Z_103_3_1  -1.4611564010327227e-02
    Z_75_1_1  Z_36_1_1  -5.3805977531362577e-02
    Z_75_1_1  Z_66_1_1  -2.7442633404895622e-02
    Z_75_1_1  Z_49_1_1  -1.2827235584399851e-02
    Z_75_1_1  Z_33_1_1  -1.2125746138377982e-03
    Z_75_1_1  Z_100_1_1  -8.6227528095132299e-03
    Z_75_1_2  Z_103_1_2  -4.4019390291264083e-04
    Z_75_1_2  Z_103_2_2  -7.9452508030514769e-03
    Z_75_1_2  Z_103_3_2  -1.4611564010327227e-02
    Z_75_1_2  Z_36_1_2  -5.3805977531362577e-02
    Z_75_1_2  Z_66_1_2  -2.7442633404895622e-02
    Z_75_1_2  Z_49_1_2  -1.2827235584399851e-02
    Z_75_1_2  Z_33_1_2  -1.2125746138377982e-03
    Z_75_1_2  Z_100_1_2  -8.6227528095132299e-03
    Z_75_1_3  Z_103_1_3  -4.4019390291264083e-04
    Z_75_1_3  Z_103_2_3  -7.9452508030514769e-03
    Z_75_1_3  Z_103_3_3  -1.4611564010327227e-02
    Z_75_1_3  Z_36_1_3  -5.3805977531362577e-02
    Z_75_1_3  Z_66_1_3  -2.7442633404895622e-02
    Z_75_1_3  Z_49_1_3  -1.2827235584399851e-02
    Z_75_1_3  Z_33_1_3  -1.2125746138377982e-03
    Z_75_1_3  Z_100_1_3  -8.6227528095132299e-03
    Z_103_1_0  Z_36_1_0  -6.3563999580585340e-01
    Z_103_1_0  Z_66_1_0  -4.7853112711833427e-03
    Z_103_1_0  Z_49_1_0  -1.2579541275022687e-03
    Z_103_1_0  Z_100_1_0  -1.1675020331127918e-01
    Z_103_1_1  Z_36_1_1  -6.3563999580585340e-01
    Z_103_1_1  Z_66_1_1  -4.7853112711833427e-03
    Z_103_1_1  Z_49_1_1  -1.2579541275022687e-03
    Z_103_1_1  Z_100_1_1  -1.1675020331127918e-01
    Z_103_1_2  Z_36_1_2  -6.3563999580585340e-01
    Z_103_1_2  Z_66_1_2  -4.7853112711833427e-03
    Z_103_1_2  Z_49_1_2  -1.2579541275022687e-03
    Z_103_1_2  Z_100_1_2  -1.1675020331127918e-01
    Z_103_1_3  Z_36_1_3  -6.3563999580585340e-01
    Z_103_1_3  Z_66_1_3  -4.7853112711833427e-03
    Z_103_1_3  Z_49_1_3  -1.2579541275022687e-03
    Z_103_1_3  Z_100_1_3  -1.1675020331127918e-01
    Z_103_2_0  Z_36_1_0  -1.9505715816435555e-05
    Z_103_2_0  Z_49_1_0  -4.3081227219148048e-05
    Z_103_2_0  Z_100_1_0  -2.7777777777777776e-02
    Z_103_2_1  Z_36_1_1  -1.9505715816435555e-05
    Z_103_2_1  Z_49_1_1  -4.3081227219148048e-05
    Z_103_2_1  Z_100_1_1  -2.7777777777777776e-02
    Z_103_2_2  Z_36_1_2  -1.9505715816435555e-05
    Z_103_2_2  Z_49_1_2  -4.3081227219148048e-05
    Z_103_2_2  Z_100_1_2  -2.7777777777777776e-02
    Z_103_2_3  Z_36_1_3  -1.9505715816435555e-05
    Z_103_2_3  Z_49_1_3  -4.3081227219148048e-05
    Z_103_2_3  Z_100_1_3  -2.7777777777777776e-02
    Z_103_3_0  Z_36_1_0  -7.9179378049969565e-02
    Z_103_3_0  Z_66_1_0  -4.7853112711833427e-03
    Z_103_3_0  Z_49_1_0  -1.9394466090975385e-01
    Z_103_3_0  Z_33_1_0  -9.1959213455486230e-02
    Z_103_3_0  Z_100_1_0  -2.4534275114047985e-01
    Z_103_3_1  Z_36_1_1  -7.9179378049969565e-02
    Z_103_3_1  Z_66_1_1  -4.7853112711833427e-03
    Z_103_3_1  Z_49_1_1  -1.9394466090975385e-01
    Z_103_3_1  Z_33_1_1  -9.1959213455486230e-02
    Z_103_3_1  Z_100_1_1  -2.4534275114047985e-01
    Z_103_3_2  Z_36_1_2  -7.9179378049969565e-02
    Z_103_3_2  Z_66_1_2  -4.7853112711833427e-03
    Z_103_3_2  Z_49_1_2  -1.9394466090975385e-01
    Z_103_3_2  Z_33_1_2  -9.1959213455486230e-02
    Z_103_3_2  Z_100_1_2  -2.4534275114047985e-01
    Z_103_3_3  Z_36_1_3  -7.9179378049969565e-02
    Z_103_3_3  Z_66_1_3  -4.7853112711833427e-03
    Z_103_3_3  Z_49_1_3  -1.9394466090975385e-01
    Z_103_3_3  Z_33_1_3  -9.1959213455486230e-02
    Z_103_3_3  Z_100_1_3  -2.4534275114047985e-01
    Z_77_1_0  Z_36_1_0  -3.0152398008329771e-02
    Z_77_1_1  Z_36_1_1  -3.0152398008329771e-02
    Z_77_1_2  Z_36_1_2  -3.0152398008329771e-02
    Z_77_1_3  Z_36_1_3  -3.0152398008329771e-02
    Z_36_1_0  Z_49_1_0  -1.2579541275022687e-03
    Z_36_1_0  Z_100_1_0  -3.8608619943229019e-02
    Z_36_1_1  Z_49_1_1  -1.2579541275022687e-03
    Z_36_1_1  Z_100_1_1  -3.8608619943229019e-02
    Z_36_1_2  Z_49_1_2  -1.2579541275022687e-03
    Z_36_1_2  Z_100_1_2  -3.8608619943229019e-02
    Z_36_1_3  Z_49_1_3  -1.2579541275022687e-03
    Z_36_1_3  Z_100_1_3  -3.8608619943229019e-02
    Z_66_1_0  Z_49_1_0  -1.9878107502421034e-02
    Z_66_1_0  Z_100_1_0  -4.6363729892949990e-01
    Z_66_1_1  Z_49_1_1  -1.9878107502421034e-02
    Z_66_1_1  Z_100_1_1  -4.6363729892949990e-01
    Z_66_1_2  Z_49_1_2  -1.9878107502421034e-02
    Z_66_1_2  Z_100_1_2  -4.6363729892949990e-01
    Z_66_1_3  Z_49_1_3  -1.9878107502421034e-02
    Z_66_1_3  Z_100_1_3  -4.6363729892949990e-01
    Z_49_1_0  Z_33_1_0  -1.0911640211990180e-01
    Z_49_1_0  Z_100_1_0  -3.8316312244606843e-04
    Z_49_1_1  Z_33_1_1  -1.0911640211990180e-01
    Z_49_1_1  Z_100_1_1  -3.8316312244606843e-04
    Z_49_1_2  Z_33_1_2  -1.0911640211990180e-01
    Z_49_1_2  Z_100_1_2  -3.8316312244606843e-04
    Z_49_1_3  Z_33_1_3  -1.0911640211990180e-01
    Z_49_1_3  Z_100_1_3  -3.8316312244606843e-04
ENDATA
