ilp_joint_2/output/combustion_ilp.sol
# Solution for model combustion_srl_ilp
# Objective value = 4.5269413350317080e+00
Z_75_1_0 0
Z_75_1_1 1
Z_75_1_2 0
Z_75_1_3 0
Z_103_1_0 1
Z_103_1_1 0
Z_103_1_2 0
Z_103_1_3 0
Z_103_2_0 0
Z_103_2_1 0
Z_103_2_2 1
Z_103_2_3 0
Z_103_3_0 0
Z_103_3_1 1
Z_103_3_2 0
Z_103_3_3 0
Z_77_1_0 0
Z_77_1_1 0
Z_77_1_2 0
Z_77_1_3 1
Z_36_1_0 1
Z_36_1_1 0
Z_36_1_2 0
Z_36_1_3 0
Z_66_1_0 0
Z_66_1_1 1
Z_66_1_2 0
Z_66_1_3 0
Z_49_1_0 0
Z_49_1_1 1
Z_49_1_2 0
Z_49_1_3 0
Z_33_1_0 0
Z_33_1_1 0
Z_33_1_2 0
Z_33_1_3 1
Z_100_1_0 0
Z_100_1_1 1
Z_100_1_2 0
Z_100_1_3 0
